decision_x1=[0,7];
decision_x2=[0,7];
decision_x3=[0,7];
decision_x4=[0,7];
decision_x5=[0,7];
decision_x6=[0,7];
decision_x7=[0,7];
decision_x8=[0,7];
decision_x9=[0,7];
decision_x10=[0,7];
decision_x11=[0,7];
decision_x12=[0,7];
decision_x13=[0,7];
decision_x14=[0,7];
decision_x15=[0,7];
decision_x16=[0,7];
random_y1=[0,7];
random_y2=[0,7];
random_y3=[0,7];
random_y4=[0,7];
random_y5=[0,7];
random_y6=[0,7];
random_y7=[0,7];
constraint_x2_x1=[
0,0,3.1|
0,1,4.8|
0,2,0.12|
0,3,5.3|
0,4,2.3|
0,5,3.3|
0,6,7.1|
0,7,2.4|
1,0,2.5|
1,1,6.1|
1,2,5.9|
1,3,8.3|
1,4,4.4|
1,5,8.4|
1,6,6.2|
1,7,9.5|
2,0,6.8|
2,1,9.2|
2,2,6.1|
2,3,3.8|
2,4,9|
2,5,5.2|
2,6,4|
2,7,7.8|
3,0,2.9|
3,1,3.5|
3,2,9.8|
3,3,4.9|
3,4,3.8|
3,5,2.6|
3,6,1.5|
3,7,8.1|
4,0,1.4|
4,1,7.2|
4,2,2.4|
4,3,0.71|
4,4,2.5|
4,5,4.8|
4,6,2|
4,7,5.5|
5,0,1.7|
5,1,9.9|
5,2,1.3|
5,3,8.7|
5,4,4.2|
5,5,8.4|
5,6,7.3|
5,7,4.9|
6,0,2.9|
6,1,9.4|
6,2,7.1|
6,3,8|
6,4,7.1|
6,5,5.8|
6,6,4.1|
6,7,1.1|
7,0,2.4|
7,1,9|
7,2,5.9|
7,3,7.3|
7,4,0.73|
7,5,7.5|
7,6,7.1|
7,7,7.3|
];
constraint_x3_x2=[
0,0,9.4|
0,1,9.8|
0,2,3.7|
0,3,7.5|
0,4,4.6|
0,5,6|
0,6,2.5|
0,7,4.7|
1,0,7.4|
1,1,5.9|
1,2,5.7|
1,3,6.5|
1,4,7.9|
1,5,5.3|
1,6,6.4|
1,7,0.3|
2,0,9.7|
2,1,5.4|
2,2,4.6|
2,3,7.4|
2,4,0.56|
2,5,5|
2,6,9|
2,7,8.2|
3,0,9|
3,1,7.1|
3,2,0.79|
3,3,0.64|
3,4,2.4|
3,5,8.2|
3,6,9.1|
3,7,3.7|
4,0,2.5|
4,1,0.39|
4,2,2.8|
4,3,8.1|
4,4,4|
4,5,6.9|
4,6,9.4|
4,7,3.3|
5,0,1.2|
5,1,6.6|
5,2,6.6|
5,3,8.6|
5,4,2.9|
5,5,4|
5,6,5|
5,7,1.1|
6,0,0.21|
6,1,6|
6,2,9|
6,3,2.6|
6,4,1.1|
6,5,7.1|
6,6,8.3|
6,7,4.1|
7,0,6.3|
7,1,5.9|
7,2,6.3|
7,3,2.9|
7,4,0.048|
7,5,3.9|
7,6,6.5|
7,7,3|
];
constraint_x4_x3=[
0,0,7.6|
0,1,3.5|
0,2,1.6|
0,3,0.58|
0,4,2.3|
0,5,2.5|
0,6,5.7|
0,7,2.1|
1,0,3.5|
1,1,1.9|
1,2,1.5|
1,3,6.8|
1,4,7.6|
1,5,4.8|
1,6,5.5|
1,7,8.2|
2,0,7.5|
2,1,7|
2,2,3.5|
2,3,10|
2,4,7|
2,5,6.7|
2,6,8.2|
2,7,8.1|
3,0,1.9|
3,1,8.5|
3,2,8.8|
3,3,0.71|
3,4,1.7|
3,5,9.3|
3,6,10|
3,7,7.4|
4,0,9.2|
4,1,5.8|
4,2,2.9|
4,3,1.7|
4,4,3.7|
4,5,4.5|
4,6,8.6|
4,7,5.1|
5,0,5.9|
5,1,9.6|
5,2,9.9|
5,3,1.2|
5,4,3.9|
5,5,7.3|
5,6,5.8|
5,7,7.5|
6,0,9.4|
6,1,6.8|
6,2,4.2|
6,3,1.4|
6,4,3.1|
6,5,5|
6,6,3.2|
6,7,4|
7,0,1.2|
7,1,5|
7,2,3.3|
7,3,8|
7,4,0.42|
7,5,9.8|
7,6,4.4|
7,7,7.4|
];
constraint_x5_x1=[
0,0,2.6|
0,1,8.7|
0,2,4.2|
0,3,6.4|
0,4,8.3|
0,5,1.1|
0,6,7.8|
0,7,8.9|
1,0,9|
1,1,5.9|
1,2,5.8|
1,3,5.6|
1,4,2.9|
1,5,5.4|
1,6,8.2|
1,7,3.9|
2,0,0.15|
2,1,4.6|
2,2,2|
2,3,4.7|
2,4,7.5|
2,5,2.7|
2,6,8|
2,7,6.6|
3,0,5.5|
3,1,6.7|
3,2,0.94|
3,3,2.6|
3,4,2.9|
3,5,4.4|
3,6,9.9|
3,7,4.6|
4,0,0.48|
4,1,9.2|
4,2,4.6|
4,3,4.8|
4,4,2.5|
4,5,7|
4,6,7.1|
4,7,1.2|
5,0,1.5|
5,1,7.2|
5,2,7|
5,3,4.6|
5,4,4.5|
5,5,0.18|
5,6,0.47|
5,7,6.5|
6,0,9.7|
6,1,3.8|
6,2,1.6|
6,3,3.5|
6,4,8.2|
6,5,1.4|
6,6,8.2|
6,7,9.5|
7,0,0.17|
7,1,2.4|
7,2,5.5|
7,3,6.9|
7,4,6.6|
7,5,6.9|
7,6,8|
7,7,9.1|
];
constraint_x6_x2=[
0,0,8|
0,1,9.4|
0,2,0.71|
0,3,1.2|
0,4,2.7|
0,5,4.2|
0,6,2.4|
0,7,8.3|
1,0,9.8|
1,1,3.3|
1,2,3.7|
1,3,2.9|
1,4,4.5|
1,5,8.7|
1,6,5.3|
1,7,6.5|
2,0,1.7|
2,1,5.8|
2,2,2.5|
2,3,4.8|
2,4,7.8|
2,5,4.9|
2,6,5.7|
2,7,0.67|
3,0,1.4|
3,1,2.4|
3,2,2.8|
3,3,7.6|
3,4,3.5|
3,5,8|
3,6,3.3|
3,7,2.6|
4,0,7.1|
4,1,0.49|
4,2,6.7|
4,3,6.2|
4,4,9.8|
4,5,8.1|
4,6,3.2|
4,7,3|
5,0,7.1|
5,1,9.4|
5,2,9.6|
5,3,2.7|
5,4,5.2|
5,5,0.96|
5,6,1.8|
5,7,7.9|
6,0,3.9|
6,1,1.9|
6,2,2.8|
6,3,6.4|
6,4,9.3|
6,5,0.21|
6,6,3.6|
6,7,2.7|
7,0,0.45|
7,1,6.5|
7,2,5.3|
7,3,3.8|
7,4,5.9|
7,5,5.3|
7,6,1.6|
7,7,2.1|
];
constraint_x6_x5=[
0,0,7.4|
0,1,0.41|
0,2,3.7|
0,3,0.42|
0,4,4.6|
0,5,5.4|
0,6,3.5|
0,7,4.6|
1,0,4.5|
1,1,0.74|
1,2,8.1|
1,3,3.2|
1,4,3.5|
1,5,4.6|
1,6,4.9|
1,7,0.35|
2,0,0.12|
2,1,5.1|
2,2,1.7|
2,3,8.1|
2,4,2.3|
2,5,5|
2,6,3.7|
2,7,2.9|
3,0,8.2|
3,1,2.4|
3,2,9.4|
3,3,3.8|
3,4,1.9|
3,5,3.3|
3,6,2.9|
3,7,0.5|
4,0,1.5|
4,1,0.58|
4,2,0.49|
4,3,2.7|
4,4,7.8|
4,5,8.1|
4,6,0.8|
4,7,1.6|
5,0,4.2|
5,1,1.5|
5,2,5|
5,3,5.9|
5,4,8.6|
5,5,2|
5,6,3.4|
5,7,1.5|
6,0,5.4|
6,1,5.1|
6,2,8.7|
6,3,1.3|
6,4,1.1|
6,5,8.4|
6,6,0.96|
6,7,4.4|
7,0,8.7|
7,1,8|
7,2,1.4|
7,3,2.6|
7,4,2.1|
7,5,0.93|
7,6,6|
7,7,0.23|
];
constraint_x7_x3=[
0,0,5.3|
0,1,8.3|
0,2,2|
0,3,4.2|
0,4,3.8|
0,5,9.6|
0,6,1.5|
0,7,1|
1,0,3.6|
1,1,8.7|
1,2,8|
1,3,3.3|
1,4,1|
1,5,3|
1,6,2.3|
1,7,1.5|
2,0,6.3|
2,1,1.9|
2,2,6|
2,3,5.2|
2,4,9.3|
2,5,3.8|
2,6,5.4|
2,7,3.3|
3,0,0.35|
3,1,6.9|
3,2,1.1|
3,3,5.3|
3,4,3.6|
3,5,6.3|
3,6,6.4|
3,7,9.4|
4,0,6.2|
4,1,6.5|
4,2,4.4|
4,3,6.6|
4,4,8.1|
4,5,2.8|
4,6,1.4|
4,7,8.6|
5,0,8.8|
5,1,5.9|
5,2,0.18|
5,3,6.1|
5,4,1.2|
5,5,4.8|
5,6,0.57|
5,7,9.8|
6,0,0.98|
6,1,3.3|
6,2,4.4|
6,3,4.6|
6,4,6.2|
6,5,0.2|
6,6,4|
6,7,2|
7,0,8.9|
7,1,1.9|
7,2,5.8|
7,3,0.71|
7,4,7.4|
7,5,9.5|
7,6,2.1|
7,7,1.2|
];
constraint_x7_x6=[
0,0,2.1|
0,1,3.3|
0,2,8.6|
0,3,2.5|
0,4,4|
0,5,5.2|
0,6,9.4|
0,7,9.6|
1,0,9.9|
1,1,6.9|
1,2,3.6|
1,3,8.8|
1,4,0.68|
1,5,9.3|
1,6,5.7|
1,7,9.4|
2,0,0.64|
2,1,1.1|
2,2,7.7|
2,3,2.4|
2,4,2.6|
2,5,3|
2,6,2|
2,7,8.6|
3,0,2.3|
3,1,5.1|
3,2,0.38|
3,3,0.41|
3,4,4|
3,5,6.7|
3,6,9.5|
3,7,6.4|
4,0,5.9|
4,1,6|
4,2,7.6|
4,3,1.3|
4,4,8.2|
4,5,7.8|
4,6,3|
4,7,2.5|
5,0,2.6|
5,1,8.2|
5,2,3.8|
5,3,4.6|
5,4,9.4|
5,5,5.6|
5,6,5.2|
5,7,2.7|
6,0,9.2|
6,1,3.2|
6,2,0.69|
6,3,0.99|
6,4,2.1|
6,5,5.4|
6,6,7.7|
6,7,7.9|
7,0,3.1|
7,1,2.4|
7,2,5.4|
7,3,4.9|
7,4,6.4|
7,5,7.7|
7,6,3.3|
7,7,9.7|
];
constraint_x8_x4=[
0,0,9.4|
0,1,3.3|
0,2,6.4|
0,3,9.6|
0,4,7.8|
0,5,7.9|
0,6,1.3|
0,7,6.8|
1,0,7.3|
1,1,0.39|
1,2,9.3|
1,3,2.5|
1,4,4|
1,5,9.2|
1,6,0.12|
1,7,2.6|
2,0,6.2|
2,1,7.2|
2,2,0.47|
2,3,2.7|
2,4,6|
2,5,7|
2,6,1.6|
2,7,8.5|
3,0,4.8|
3,1,6.3|
3,2,3|
3,3,7.8|
3,4,7.1|
3,5,9.8|
3,6,9.2|
3,7,4.2|
4,0,6.7|
4,1,1.2|
4,2,1.7|
4,3,8.7|
4,4,8.6|
4,5,5.9|
4,6,3.3|
4,7,4.7|
5,0,2.4|
5,1,5.4|
5,2,5.9|
5,3,8.3|
5,4,7.4|
5,5,2.3|
5,6,10|
5,7,6.3|
6,0,2.1|
6,1,1.8|
6,2,1.4|
6,3,0.89|
6,4,8.4|
6,5,5|
6,6,3.6|
6,7,8.4|
7,0,5.2|
7,1,8.2|
7,2,0.47|
7,3,9.8|
7,4,4.7|
7,5,9|
7,6,2.9|
7,7,5.6|
];
constraint_x8_x7=[
0,0,0.074|
0,1,2.4|
0,2,2.3|
0,3,6.2|
0,4,1.3|
0,5,4|
0,6,5.7|
0,7,9.6|
1,0,4.2|
1,1,6.3|
1,2,1.9|
1,3,3.3|
1,4,7.7|
1,5,4.7|
1,6,6.9|
1,7,5.7|
2,0,3.3|
2,1,5.3|
2,2,5.7|
2,3,3.2|
2,4,0.087|
2,5,0.41|
2,6,1.7|
2,7,8.7|
3,0,0.9|
3,1,2|
3,2,2.3|
3,3,4.6|
3,4,4.6|
3,5,6|
3,6,3.6|
3,7,5.5|
4,0,7.9|
4,1,6.9|
4,2,9.1|
4,3,2.2|
4,4,2.2|
4,5,3.8|
4,6,0.86|
4,7,7.1|
5,0,8.7|
5,1,1.1|
5,2,0.73|
5,3,9.9|
5,4,7|
5,5,2.5|
5,6,3.4|
5,7,2.7|
6,0,3.7|
6,1,8.1|
6,2,9.5|
6,3,6.2|
6,4,5.2|
6,5,6.1|
6,6,4.1|
6,7,5.1|
7,0,8.2|
7,1,8.2|
7,2,3.9|
7,3,2.9|
7,4,5.7|
7,5,3.3|
7,6,8.1|
7,7,6.2|
];
constraint_x9_x5=[
0,0,3.9|
0,1,6.1|
0,2,4.9|
0,3,6.3|
0,4,3.7|
0,5,1.6|
0,6,8.3|
0,7,1.9|
1,0,6.4|
1,1,5.9|
1,2,9.4|
1,3,9.9|
1,4,8.9|
1,5,7|
1,6,5.3|
1,7,1.2|
2,0,6|
2,1,8.2|
2,2,2.4|
2,3,0.075|
2,4,3.9|
2,5,1|
2,6,6.7|
2,7,5.4|
3,0,9.3|
3,1,4.3|
3,2,9|
3,3,9.9|
3,4,6.8|
3,5,7.3|
3,6,5.1|
3,7,5.8|
4,0,5|
4,1,4.8|
4,2,5.2|
4,3,1.9|
4,4,4.8|
4,5,5.2|
4,6,1.3|
4,7,1.6|
5,0,3.1|
5,1,1.2|
5,2,2.3|
5,3,0.23|
5,4,1.4|
5,5,5.8|
5,6,3.3|
5,7,9.4|
6,0,1.9|
6,1,7.7|
6,2,8.9|
6,3,6.7|
6,4,7.7|
6,5,2.4|
6,6,3.9|
6,7,5.2|
7,0,5.7|
7,1,2.6|
7,2,1.9|
7,3,7.5|
7,4,3.2|
7,5,4.8|
7,6,6.3|
7,7,3|
];
constraint_x10_x6=[
0,0,4|
0,1,2.5|
0,2,9.9|
0,3,2.3|
0,4,7.5|
0,5,8.6|
0,6,2.8|
0,7,7.1|
1,0,4.6|
1,1,2.6|
1,2,0.32|
1,3,0.92|
1,4,7.6|
1,5,7.6|
1,6,0.73|
1,7,8.6|
2,0,0.15|
2,1,5.1|
2,2,7.6|
2,3,9.7|
2,4,7.8|
2,5,9.8|
2,6,0.026|
2,7,9.4|
3,0,2.1|
3,1,4.4|
3,2,6.9|
3,3,5.8|
3,4,9.9|
3,5,5.5|
3,6,7.1|
3,7,0.16|
4,0,1.9|
4,1,1.1|
4,2,1.2|
4,3,0.61|
4,4,8.9|
4,5,4.9|
4,6,6.1|
4,7,0.22|
5,0,6|
5,1,7.2|
5,2,7.2|
5,3,4.1|
5,4,7.2|
5,5,3.1|
5,6,9.4|
5,7,1.7|
6,0,5.3|
6,1,0.83|
6,2,3.8|
6,3,1.2|
6,4,9.8|
6,5,10|
6,6,0.89|
6,7,4.2|
7,0,1.9|
7,1,7.8|
7,2,0.14|
7,3,8.6|
7,4,5.4|
7,5,0.18|
7,6,3.5|
7,7,5.6|
];
constraint_x11_x7=[
0,0,5.2|
0,1,0.37|
0,2,1.3|
0,3,7.8|
0,4,3.6|
0,5,8.8|
0,6,3|
0,7,5.7|
1,0,1.8|
1,1,0.18|
1,2,0.62|
1,3,6.1|
1,4,9.7|
1,5,2.2|
1,6,3.5|
1,7,6.1|
2,0,6.4|
2,1,1.9|
2,2,4.1|
2,3,6.5|
2,4,8.8|
2,5,0.38|
2,6,5.9|
2,7,0.72|
3,0,4.1|
3,1,4.7|
3,2,9.9|
3,3,9.4|
3,4,9.9|
3,5,6.6|
3,6,8.1|
3,7,8.2|
4,0,6.9|
4,1,5|
4,2,7.4|
4,3,5.9|
4,4,4.8|
4,5,9.9|
4,6,6.6|
4,7,8|
5,0,3.5|
5,1,4.3|
5,2,2|
5,3,2.3|
5,4,5.6|
5,5,9.7|
5,6,9.1|
5,7,0.97|
6,0,7.6|
6,1,6.4|
6,2,8.4|
6,3,7.5|
6,4,5|
6,5,3.2|
6,6,7|
6,7,4.3|
7,0,8.8|
7,1,8.9|
7,2,9.4|
7,3,8.4|
7,4,4.9|
7,5,3.1|
7,6,0.38|
7,7,1.2|
];
constraint_x12_x8=[
0,0,9.8|
0,1,5.4|
0,2,8|
0,3,0.16|
0,4,5.2|
0,5,7.5|
0,6,5.9|
0,7,5.2|
1,0,8.7|
1,1,7.4|
1,2,4|
1,3,9.7|
1,4,3.4|
1,5,6.8|
1,6,5.7|
1,7,5.3|
2,0,3.8|
2,1,0.72|
2,2,4.8|
2,3,6.7|
2,4,8.4|
2,5,9.6|
2,6,5.7|
2,7,4.1|
3,0,3.3|
3,1,4.1|
3,2,9.8|
3,3,7.8|
3,4,5.7|
3,5,0.25|
3,6,0.11|
3,7,8.9|
4,0,9.2|
4,1,2.1|
4,2,7.1|
4,3,0.2|
4,4,8|
4,5,8.3|
4,6,9.7|
4,7,4.5|
5,0,3.1|
5,1,3.1|
5,2,3|
5,3,1.9|
5,4,5.1|
5,5,6.7|
5,6,1.8|
5,7,9.2|
6,0,7.7|
6,1,2.4|
6,2,1.4|
6,3,8|
6,4,9.2|
6,5,7.2|
6,6,4.4|
6,7,6.9|
7,0,8.7|
7,1,4.3|
7,2,6.2|
7,3,5.2|
7,4,9.3|
7,5,9.2|
7,6,6.8|
7,7,7.2|
];
constraint_x13_x9=[
0,0,6|
0,1,3.4|
0,2,4.7|
0,3,4|
0,4,4.2|
0,5,2|
0,6,9|
0,7,9.5|
1,0,6.4|
1,1,6.6|
1,2,4.9|
1,3,4.9|
1,4,9.9|
1,5,4.8|
1,6,6.1|
1,7,4.4|
2,0,7.1|
2,1,2|
2,2,7.8|
2,3,7.3|
2,4,7.4|
2,5,2.2|
2,6,0.76|
2,7,2.4|
3,0,3|
3,1,0.48|
3,2,4.7|
3,3,1.6|
3,4,8.9|
3,5,3.3|
3,6,0.78|
3,7,0.03|
4,0,4.7|
4,1,9.9|
4,2,0.22|
4,3,7.6|
4,4,9.1|
4,5,9|
4,6,0.41|
4,7,3.6|
5,0,8.8|
5,1,0.78|
5,2,8.5|
5,3,4.8|
5,4,5|
5,5,6.4|
5,6,7.1|
5,7,7.4|
6,0,1.2|
6,1,1.7|
6,2,9|
6,3,2.8|
6,4,5|
6,5,2|
6,6,3.4|
6,7,3.7|
7,0,6.1|
7,1,7.3|
7,2,0.49|
7,3,1.9|
7,4,6.7|
7,5,9.7|
7,6,9.1|
7,7,3.3|
];
constraint_x14_x10=[
0,0,1.1|
0,1,7.6|
0,2,9.6|
0,3,5.6|
0,4,5.7|
0,5,4.5|
0,6,1.8|
0,7,1|
1,0,1.3|
1,1,4.8|
1,2,1|
1,3,5.1|
1,4,0.28|
1,5,3.8|
1,6,9.4|
1,7,0.54|
2,0,5.5|
2,1,6.9|
2,2,2.9|
2,3,1|
2,4,4.3|
2,5,7.1|
2,6,4.1|
2,7,0.96|
3,0,0.1|
3,1,5.5|
3,2,8.8|
3,3,4.9|
3,4,1.7|
3,5,5.7|
3,6,8.6|
3,7,8.2|
4,0,4.8|
4,1,9.6|
4,2,5.3|
4,3,6.3|
4,4,4.2|
4,5,7|
4,6,0.61|
4,7,5.6|
5,0,2.2|
5,1,0.55|
5,2,4.2|
5,3,1.8|
5,4,6.5|
5,5,2.5|
5,6,3.1|
5,7,8.3|
6,0,5.1|
6,1,2.8|
6,2,2.4|
6,3,9.9|
6,4,9.4|
6,5,6.9|
6,6,8.1|
6,7,5.1|
7,0,9.8|
7,1,4.5|
7,2,4.6|
7,3,3.1|
7,4,5.9|
7,5,0.75|
7,6,0.75|
7,7,2.4|
];
constraint_x15_x11=[
0,0,9.6|
0,1,4.1|
0,2,1.1|
0,3,8.5|
0,4,5.3|
0,5,3|
0,6,2.5|
0,7,0.99|
1,0,2.2|
1,1,3.5|
1,2,7.5|
1,3,9.9|
1,4,3.2|
1,5,7|
1,6,5.9|
1,7,6.6|
2,0,1.4|
2,1,5.6|
2,2,5.3|
2,3,7.5|
2,4,4.3|
2,5,2.9|
2,6,3.2|
2,7,6.4|
3,0,8.7|
3,1,1|
3,2,1.4|
3,3,7.6|
3,4,9.8|
3,5,7.8|
3,6,7.8|
3,7,4.8|
4,0,3.2|
4,1,9.1|
4,2,0.44|
4,3,1.6|
4,4,4|
4,5,5.1|
4,6,1.7|
4,7,9.2|
5,0,3.2|
5,1,8.9|
5,2,9|
5,3,0.27|
5,4,9.3|
5,5,1.5|
5,6,7.4|
5,7,3.1|
6,0,8.2|
6,1,2.4|
6,2,2.9|
6,3,0.4|
6,4,9.8|
6,5,1.5|
6,6,6.8|
6,7,5.1|
7,0,2.1|
7,1,0.79|
7,2,6.9|
7,3,9.6|
7,4,2.3|
7,5,4.9|
7,6,4.6|
7,7,8.3|
];
constraint_x16_x12=[
0,0,3.7|
0,1,0.55|
0,2,8.1|
0,3,4.4|
0,4,8.8|
0,5,9.3|
0,6,1.4|
0,7,7.8|
1,0,1.2|
1,1,0.37|
1,2,2.1|
1,3,1.2|
1,4,8.4|
1,5,9.8|
1,6,10|
1,7,3|
2,0,9.6|
2,1,0.62|
2,2,0.38|
2,3,5.2|
2,4,2.6|
2,5,6.7|
2,6,2.9|
2,7,9|
3,0,3.1|
3,1,2.4|
3,2,1.9|
3,3,7.7|
3,4,7.5|
3,5,8.6|
3,6,9.3|
3,7,6|
4,0,4.6|
4,1,6.2|
4,2,7.2|
4,3,10|
4,4,4.3|
4,5,3.9|
4,6,0.27|
4,7,6.8|
5,0,4.7|
5,1,5.2|
5,2,5.1|
5,3,5.2|
5,4,0.52|
5,5,9.9|
5,6,6.4|
5,7,7.3|
6,0,6.2|
6,1,2.5|
6,2,5.9|
6,3,9.4|
6,4,0.82|
6,5,0.6|
6,6,4.3|
6,7,7.9|
7,0,7.9|
7,1,6.2|
7,2,8.4|
7,3,0.49|
7,4,1.3|
7,5,0.57|
7,6,6.2|
7,7,1|
];
constraint_x1_y1=[
0,0,2.2|
0,1,9.9|
0,2,6.4|
0,3,9.2|
0,4,2.6|
0,5,2|
0,6,3.4|
0,7,0.31|
1,0,2.1|
1,1,2.3|
1,2,2.7|
1,3,1.7|
1,4,0.27|
1,5,5.5|
1,6,1.5|
1,7,7.1|
2,0,6.2|
2,1,1.2|
2,2,1.5|
2,3,1.4|
2,4,0.82|
2,5,0.13|
2,6,5.7|
2,7,1.2|
3,0,0.71|
3,1,1.3|
3,2,8.2|
3,3,9.1|
3,4,0.67|
3,5,10|
3,6,0.42|
3,7,8.7|
4,0,2.3|
4,1,5.9|
4,2,9|
4,3,8|
4,4,0.61|
4,5,7.9|
4,6,1|
4,7,7.8|
5,0,0.85|
5,1,9.1|
5,2,5.6|
5,3,3.2|
5,4,1.3|
5,5,8.1|
5,6,4|
5,7,3.8|
6,0,1.5|
6,1,3.1|
6,2,2.8|
6,3,4|
6,4,9.5|
6,5,0.48|
6,6,9.9|
6,7,0.96|
7,0,9.5|
7,1,8.4|
7,2,1.2|
7,3,0.23|
7,4,8.6|
7,5,3.6|
7,6,3|
7,7,5.2|
];
constraint_x2_y2=[
0,0,0.9|
0,1,8.1|
0,2,1.3|
0,3,8.2|
0,4,2.5|
0,5,0.59|
0,6,1.6|
0,7,3.7|
1,0,7.8|
1,1,6.2|
1,2,9.4|
1,3,5.5|
1,4,6.6|
1,5,3.7|
1,6,8.1|
1,7,5.6|
2,0,6.2|
2,1,0.52|
2,2,8.7|
2,3,9.1|
2,4,1.2|
2,5,10|
2,6,7.6|
2,7,6.5|
3,0,8.1|
3,1,8|
3,2,5.4|
3,3,6.3|
3,4,0.1|
3,5,7.1|
3,6,2.3|
3,7,4.2|
4,0,3.1|
4,1,8.8|
4,2,1.9|
4,3,3.1|
4,4,3.9|
4,5,4.8|
4,6,3.3|
4,7,5.8|
5,0,8.7|
5,1,10|
5,2,5|
5,3,2.9|
5,4,1.4|
5,5,5.2|
5,6,9.4|
5,7,10|
6,0,7.6|
6,1,2.9|
6,2,5.9|
6,3,3.5|
6,4,3.1|
6,5,9.5|
6,6,9.8|
6,7,7.5|
7,0,0.49|
7,1,1.7|
7,2,8.9|
7,3,0.55|
7,4,6.2|
7,5,6.5|
7,6,0.91|
7,7,9.3|
];
constraint_x3_y3=[
0,0,2.1|
0,1,2.7|
0,2,1.2|
0,3,8.9|
0,4,5|
0,5,8|
0,6,6.1|
0,7,6.5|
1,0,0.61|
1,1,1.8|
1,2,9.6|
1,3,4.7|
1,4,0.46|
1,5,9.5|
1,6,9.4|
1,7,6.8|
2,0,3|
2,1,3.1|
2,2,6|
2,3,9.7|
2,4,1.2|
2,5,6.9|
2,6,3.9|
2,7,2.8|
3,0,5.9|
3,1,9.1|
3,2,9.3|
3,3,2.9|
3,4,2.3|
3,5,3.5|
3,6,8.5|
3,7,2.5|
4,0,5.9|
4,1,8.4|
4,2,3.5|
4,3,6.7|
4,4,1.1|
4,5,9.9|
4,6,3.7|
4,7,4.1|
5,0,3.3|
5,1,7.6|
5,2,3.2|
5,3,4.2|
5,4,7.9|
5,5,7.1|
5,6,0.7|
5,7,8.8|
6,0,8.8|
6,1,5.8|
6,2,2|
6,3,1.1|
6,4,8.9|
6,5,5.1|
6,6,2.9|
6,7,5.3|
7,0,9.9|
7,1,0.85|
7,2,2.8|
7,3,2.2|
7,4,0.98|
7,5,2.6|
7,6,4.9|
7,7,7|
];
constraint_x4_y4=[
0,0,3.9|
0,1,9.6|
0,2,6.4|
0,3,1.7|
0,4,3|
0,5,3.2|
0,6,3.5|
0,7,4.8|
1,0,5.9|
1,1,2.4|
1,2,9.7|
1,3,9.1|
1,4,5.7|
1,5,7.6|
1,6,6.7|
1,7,8.2|
2,0,6|
2,1,8.7|
2,2,2.3|
2,3,0.29|
2,4,8.4|
2,5,7.3|
2,6,7.1|
2,7,3.7|
3,0,1.1|
3,1,9|
3,2,3.7|
3,3,4.8|
3,4,3.3|
3,5,3.2|
3,6,2.8|
3,7,3.6|
4,0,3.4|
4,1,3.6|
4,2,9|
4,3,9.9|
4,4,0.15|
4,5,1.2|
4,6,8.9|
4,7,0.59|
5,0,7.9|
5,1,2.6|
5,2,7.5|
5,3,2.5|
5,4,5.1|
5,5,7.6|
5,6,0.75|
5,7,2.5|
6,0,2.1|
6,1,8|
6,2,5.8|
6,3,5|
6,4,1.2|
6,5,9.2|
6,6,7.6|
6,7,8.5|
7,0,2.3|
7,1,4.7|
7,2,9|
7,3,8.9|
7,4,1.2|
7,5,9.5|
7,6,3.6|
7,7,3.8|
];
constraint_x5_y5=[
0,0,4.7|
0,1,4.1|
0,2,5.7|
0,3,6.7|
0,4,3.1|
0,5,2.8|
0,6,1.5|
0,7,3.3|
1,0,6.4|
1,1,8.1|
1,2,1.6|
1,3,9.4|
1,4,7.3|
1,5,9.9|
1,6,3.2|
1,7,2.7|
2,0,6.1|
2,1,8.1|
2,2,8.7|
2,3,7.1|
2,4,1.8|
2,5,1.1|
2,6,7.2|
2,7,2.4|
3,0,0.067|
3,1,1.8|
3,2,0.098|
3,3,7.1|
3,4,9.6|
3,5,0.8|
3,6,7.3|
3,7,2.4|
4,0,4.6|
4,1,9.7|
4,2,3.8|
4,3,0.2|
4,4,4.8|
4,5,2|
4,6,5.8|
4,7,6.6|
5,0,0.35|
5,1,2.8|
5,2,1.6|
5,3,9.6|
5,4,7.6|
5,5,7.9|
5,6,2.9|
5,7,5.3|
6,0,4|
6,1,8.4|
6,2,7.5|
6,3,6.1|
6,4,9.1|
6,5,4.4|
6,6,3.9|
6,7,0.73|
7,0,6.8|
7,1,8.8|
7,2,2.4|
7,3,2.9|
7,4,8.4|
7,5,6.4|
7,6,3.7|
7,7,4.4|
];
constraint_x6_y6=[
0,0,2.4|
0,1,1.9|
0,2,5.9|
0,3,5.8|
0,4,8|
0,5,8.9|
0,6,0.78|
0,7,3.1|
1,0,0.95|
1,1,4.5|
1,2,6.4|
1,3,3|
1,4,7.7|
1,5,0.63|
1,6,3.2|
1,7,6.7|
2,0,6.5|
2,1,0.24|
2,2,8.4|
2,3,2.6|
2,4,2.1|
2,5,0.9|
2,6,8.8|
2,7,3.5|
3,0,9.9|
3,1,2.4|
3,2,7.6|
3,3,2.9|
3,4,1.3|
3,5,9.6|
3,6,1.2|
3,7,3.3|
4,0,7.9|
4,1,2.4|
4,2,0.79|
4,3,6.3|
4,4,5.5|
4,5,2|
4,6,2.3|
4,7,7.4|
5,0,0.33|
5,1,2.9|
5,2,3.2|
5,3,8.2|
5,4,5.2|
5,5,6.1|
5,6,0.85|
5,7,9.9|
6,0,3.4|
6,1,3.8|
6,2,3|
6,3,0.44|
6,4,4.8|
6,5,5.9|
6,6,8.1|
6,7,0.33|
7,0,5|
7,1,7.1|
7,2,9.7|
7,3,2.4|
7,4,0.69|
7,5,3.1|
7,6,4.6|
7,7,1.8|
];
constraint_x7_y7=[
0,0,7.4|
0,1,6.6|
0,2,3|
0,3,7.6|
0,4,8.1|
0,5,7.8|
0,6,9.5|
0,7,7.2|
1,0,2.6|
1,1,4.2|
1,2,4.6|
1,3,2.9|
1,4,4.3|
1,5,0.27|
1,6,7.1|
1,7,6.4|
2,0,2|
2,1,3|
2,2,8.6|
2,3,2.8|
2,4,1.4|
2,5,9.3|
2,6,6.2|
2,7,0.97|
3,0,3.3|
3,1,3.2|
3,2,3.1|
3,3,1.5|
3,4,0.28|
3,5,1.5|
3,6,0.92|
3,7,2.1|
4,0,0.78|
4,1,6.5|
4,2,1.4|
4,3,2|
4,4,7.1|
4,5,3.2|
4,6,4.4|
4,7,4.8|
5,0,4|
5,1,2.8|
5,2,2.8|
5,3,2.3|
5,4,3.7|
5,5,7|
5,6,5.2|
5,7,5.8|
6,0,6.6|
6,1,0.47|
6,2,8.5|
6,3,5.9|
6,4,7.3|
6,5,2.8|
6,6,4.6|
6,7,9.7|
7,0,7.9|
7,1,9|
7,2,7.7|
7,3,4.5|
7,4,2.4|
7,5,0.22|
7,6,7.4|
7,7,2.1|
];
initial_distribution_y1=[0.11,0.021,0.04,0.15,0.15,0.18,0.17,0.17];
initial_distribution_y2=[0.048,0.24,0.17,0.21,0.13,0.035,0.11,0.061];
initial_distribution_y3=[0.14,0.032,0.0093,0.14,0.15,0.11,0.24,0.18];
initial_distribution_y4=[0.095,0.078,0.087,0.18,0.18,0.05,0.21,0.13];
initial_distribution_y5=[0.18,0.13,0.21,0.098,0.014,0.18,0.081,0.11];
initial_distribution_y6=[0.1,0.15,0.17,0.1,0.13,0.17,0.11,0.08];
initial_distribution_y7=[0.18,0.1,0.13,0.06,0.18,0.066,0.11,0.17];
transition_y1=[
0.15,0.13,0.079,0.17,0.19,0.021,0.053,0.2|
0.19,0.15,0.12,0.095,0.062,0.12,0.058,0.21|
0.21,0.22,0.035,0.0096,0.043,0.11,0.25,0.13|
0.16,0.018,0.22,0.028,0.088,0.2,0.2,0.087|
0.085,0.19,0.11,0.064,0.12,0.14,0.14,0.15|
0.16,0.12,0.17,0.14,0.068,0.01,0.14,0.19|
0.19,0.062,0.17,0.17,0.059,0.064,0.17,0.12|
0.018,0.1,0.13,0.18,0.13,0.14,0.16,0.14|
];
transition_y2=[
0.18,0.19,0.084,0.16,0.068,0.072,0.12,0.12|
0.15,0.084,0.15,0.044,0.092,0.026,0.24,0.22|
0.16,0.0046,0.11,0.13,0.035,0.14,0.2,0.23|
0.17,0.042,0.15,0.015,0.17,0.19,0.071,0.19|
0.098,0.021,0.052,0.2,0.29,0.22,0.095,0.016|
0.17,0.077,0.061,0.22,0.2,0.03,0.11,0.14|
0.22,0.086,0.12,0.052,0.013,0.12,0.17,0.23|
0.095,0.1,0.18,0.072,0.2,0.23,0.0063,0.11|
];
transition_y3=[
0.24,0.098,0.053,0.12,0.23,0.19,0.02,0.053|
0.069,0.27,0.13,0.026,0.07,0.25,0.01,0.17|
0.22,0.15,0.02,0.11,0.095,0.039,0.05,0.31|
0.2,0.012,0.048,0.018,0.13,0.14,0.23,0.23|
0.031,0.19,0.067,0.14,0.2,0.057,0.2,0.12|
0.07,0.036,0.12,0.13,0.042,0.13,0.25,0.22|
0.25,0.23,0.053,0.017,0.14,0.2,0.059,0.048|
0.17,0.15,0.14,0.059,0.13,0.11,0.17,0.078|
];
transition_y4=[
0.065,0.059,0.22,0.19,0.25,0.15,0.0099,0.056|
0.024,0.063,0.072,0.2,0.19,0.17,0.081,0.19|
0.14,0.17,0.21,0.043,0.19,0.1,0.086,0.053|
0.21,0.13,0.058,0.16,0.039,0.13,0.13,0.14|
0.2,0.067,0.12,0.12,0.23,0.12,0.13,0.019|
0.053,0.17,0.18,0.18,0.037,0.18,0.065,0.13|
0.13,0.031,0.048,0.26,0.11,0.076,0.28,0.063|
0.022,0.19,0.031,0.016,0.28,0.15,0.17,0.13|
];
transition_y5=[
0.15,0.2,0.037,0.14,0.039,0.16,0.19,0.077|
0.12,0.25,0.23,0.011,0.094,0.039,0.023,0.23|
0.14,0.12,0.17,0.0042,0.08,0.18,0.29,0.0071|
0.038,0.06,0.061,0.18,0.19,0.35,0.018,0.1|
0.13,0.13,0.22,0.0085,0.04,0.082,0.24,0.16|
0.13,0.029,0.16,0.15,0.15,0.0071,0.27,0.099|
0.13,0.18,0.23,0.14,0.027,0.023,0.077,0.2|
0.11,0.05,0.15,0.16,0.18,0.087,0.16,0.11|
];
transition_y6=[
0.0058,0.09,0.17,0.19,0.16,0.076,0.2,0.12|
0.11,0.15,0.19,0.092,0.2,0.025,0.11,0.12|
0.14,0.26,0.11,0.065,0.071,0.027,0.043,0.28|
0.14,0.086,0.025,0.18,0.08,0.17,0.16,0.16|
0.19,0.12,0.05,0.046,0.13,0.1,0.23,0.13|
0.16,0.068,0.08,0.23,0.16,0.1,0.15,0.058|
0.068,0.23,0.18,0.086,0.21,0.13,0.066,0.032|
0.2,0.15,0.18,0.016,0.068,0.21,0.018,0.17|
];
transition_y7=[
0.021,0.13,0.039,0.19,0.19,0.15,0.17,0.11|
0.17,0.067,0.19,0.17,0.14,0.12,0.057,0.082|
0.027,0.18,0.14,0.21,0.13,0.18,0.026,0.11|
0.013,0.23,0.14,0.24,0.1,0.083,0.029,0.16|
0.24,0.067,0.21,0.079,0.03,0.097,0.076,0.2|
0.072,0.15,0.14,0.12,0.0079,0.15,0.19,0.17|
0.093,0.11,0.012,0.08,0.12,0.028,0.31,0.25|
0.0048,0.23,0.18,0.076,0.011,0.081,0.31,0.1|
];
